p td 39 117
6 3
6 4
6 1
7 2
7 4
8 3
9 3
11 6
13 6
14 2
14 6
14 7
15 3
16 4
16 12
16 13
16 2
16 10
17 2
17 7
17 4
18 9
18 14
19 14
19 2
20 17
20 13
20 14
21 15
21 16
21 7
21 19
21 1
21 10
22 13
22 12
22 3
23 13
23 12
23 1
24 13
24 20
24 22
24 11
24 21
25 4
25 23
25 22
26 8
26 10
26 4
26 1
27 23
27 11
27 17
27 1
27 12
27 6
27 7
28 15
28 18
28 9
28 16
28 3
29 5
29 13
29 1
29 4
30 6
30 28
31 4
31 5
31 25
31 19
31 20
32 23
32 17
32 16
32 11
33 17
33 16
33 8
33 27
34 32
34 8
34 23
34 22
34 1
34 33
34 16
35 19
35 22
35 26
35 13
35 23
36 11
36 5
36 14
36 20
37 22
37 18
37 30
37 34
37 32
37 13
38 36
38 32
38 17
38 27
38 1
39 19
39 32
39 20
39 5
39 37
39 21
39 25
